<number of tasks>
50

<cycle time>
1000

<order strength>
0.597


<task times>
1 165
2 184
3 98
4 183
5 209
6 98
7 205
8 144
9 172
10 297
11 151
12 255
13 140
14 164
15 36
16 243
17 38
18 149
19 85
20 40
21 331
22 315
23 155
24 118
25 368
26 237
27 136
28 151
29 175
30 79
31 79
32 65
33 272
34 172
35 69
36 241
37 100
38 40
39 67
40 37
41 112
42 57
43 51
44 189
45 175
46 29
47 116
48 62
49 154
50 40

<precedence relations>
1,7
1,8
2,8
2,19
2,20
3,6
3,7
3,21
4,14
4,20
4,30
5,7
5,26
6,9
6,13
7,9
7,11
7,13
8,9
8,10
8,12
8,14
8,15
9,30
9,31
10,17
10,18
11,20
11,29
11,30
11,34
12,18
13,19
14,16
14,23
14,27
14,33
15,16
15,17
16,36
16,39
17,23
17,27
18,21
18,23
18,27
19,22
19,23
21,24
21,26
21,34
22,24
22,27
23,25
23,28
23,32
24,30
24,31
24,32
24,33
25,29
25,31
25,34
26,35
26,43
27,32
28,29
29,37
30,35
31,35
31,41
32,36
32,38
33,41
33,45
34,40
35,40
35,44
36,43
37,39
38,41
38,42
39,46
41,43
41,44
42,45
43,47
43,49
44,48
44,50
45,50
46,47

<end>
